NAME : A045-18f.6399.tour
COMMENT : Cost = 0_6399
COMMENT : Found by LKH [Keld Helsgaun] Tue Sep 12 08:50:41 2017
TYPE : TOUR
DIMENSION : 62
TOUR_SECTION
1
28
45
8
12
47
42
40
39
59
15
3
49
22
34
61
4
5
58
32
2
46
11
38
60
9
13
52
21
10
14
20
57
6
30
55
43
24
48
44
41
37
62
29
23
16
54
31
25
35
53
36
26
51
19
27
33
56
7
17
18
50
-1
EOF
